ACTORES = {Actor1, Actor2, Actor3, Actor4, Actor5} ;

Escenas = [| 0,1,1,1,0,0,10
           | 0,1,0,1,0,0,20
           | 1,1,1,1,0,0,15
           | 0,1,1,1,1,1,13
           | 1,0,0,0,1,1,12|]; 
           
Duracion = [2,1,1,1,3,4];

Disponibilidad =[|Actor1, 2
                 |Actor2, 10
                 |Actor3, 15
                 |Actor4, 0
                 |Actor5, 0|];

Evitar =[|Actor1, Actor5
         |Actor1, Actor2
         |Actor2, Actor5|];

%=====UNSATISFIABLE=====
%El actor1 solo tiene disponible 2 horas pero requiere 3